75, 163
156, 247
168, 132
104, 404
515, 277
217, 478
262, 153
132, 102
348, 352
198, 416
294, 298
215, 105
250, 395
63, 249
92, 327
522, 118
431, 371
178, 239
221, 446
90, 234
507, 200
229, 410
166, 282
204, 106
173, 127
468, 321
90, 263
288, 286
344, 282
55, 264
544, 391
326, 300
539, 351
281, 194
494, 104
152, 183
182, 206
141, 193
87, 117
304, 231
151, 268
485, 394
64, 174
89, 179
77, 399
481, 272
324, 215
69, 253
477, 228
520, 373
241, 383
334, 480
158, 272
252, 318
359, 481
319, 260
94, 205
369, 247
299, 200
336, 478
379, 439
440, 408
547, 186
337, 276
510, 257
452, 210
451, 400
92, 124
193, 285
434, 349
537, 190
174, 416
350, 156
154, 180
319, 218
292, 257